0 42 40 38 11 16 43 7 26 22
42 0 14 12 22 20 22 3 26 32
40 14 0 17 21 40 3 29 20 12
38 12 17 0 31 24 17 28 48 46
11 22 21 31 0 23 11 49 7 30
16 20 40 24 23 0 29 13 36 31
43 22 3 17 11 29 0 43 27 2
7 3 29 28 49 13 43 0 10 29
26 26 20 48 7 36 27 10 0 46
22 32 12 46 30 31 2 29 46 0
